(set-logic QF_BV)
(declare-fun _substvar_3625_ () (_ BitVec 32))
(declare-fun _substvar_3533_ () (_ BitVec 32))
(declare-fun _substvar_2266_ () (_ BitVec 32))
(declare-fun _substvar_3552_ () (_ BitVec 32))
(declare-fun _substvar_2611_ () (_ BitVec 8))
(declare-fun _substvar_3581_ () (_ BitVec 32))
(declare-fun _substvar_2687_ () (_ BitVec 32))
(assert (let ((?v_357 (bvadd _substvar_3581_ (_ bv8 32)))) (let ( (?v_205 (bvadd _substvar_2266_ ?v_357))) (let ( (?v_333 (bvadd _substvar_3581_ (_ bv141164616 32))) (?v_332 (bvadd _substvar_3581_ (_ bv141164620 32))) (?v_272 (bvadd _substvar_3581_ (_ bv0 32))) (?v_331 (bvadd ?v_205 (_ bv4 32)))) (and true true true true true true true true true true true true (= _substvar_2687_ (bvor (bvshl (bvor (_ bv0 32) ((_ zero_extend 24) _substvar_2611_)) (_ bv8 32)) (_ bv0 32))) true true true true true true true true true true true true true true true true true true true true true true true true true true true true true true true true true true true true true true true true true true true true true true true true true true true true true true true true true true true true true true true true true true true true true true true true true true true true true true true true true true true true true true true true true true true true true true true true true true true true true true true true true true true true true true true true true true true true true true true true true true true true true true true true true true true true true true true true true true true true true true true true true true true true true true true true true true true true true true true true true true true true true true true true true true true true true true true true true true true true true true true true true true true true true true true true true true true true true true true true true true true true true true true true true true true true true true true true true true true true true true true true true true true true true true true true true true true true true true true true true true true true true true true true true true true true true true true true true true true true true true true true true true true true true true true true true true true true true true true true true true true true true true true true true true true true true true true true true true true true true true true true true true true true true true true true true true true true true true true true true true true true true true true true true true true true true true true true true true true true true true true true true true true true true true true true true true true true true true true true true true true true true true true true true true true true true true true true true true true true true true true true true true true true true true true true true true true true true true true true true true true true true true true true true true true true true true true true true true true true true true true true true true true true true true true true true true true true true true true true true true true true true true true true true true true true true true true true true true true true true true true true true true true true true true true true true true true true true true true true true true true true true true true true true true true true true true true true true true true true true true true true true true true true true true true true true true true true true true true true true true true true true true true true true true true true true true true true true true true true true true true true true true true true true true true true true true true true true true true true true true true true true true true true true true true true true true true true true true true true true true true true true true true true true true true true true true true true true true true true true true true true true true true true true true true true true true true true true true true true true true true true true (bvule (bvadd (bvadd _substvar_2687_ (bvadd ?v_272 (_ bv20 32))) (_ bv4294967295 32)) (_ bv0 32)) true true true true true true true true true true true true true true true true true true true true true true true true true true true true true true true true true true true true true true true true true true true true true true true true true true true true true true true true true true true true true true true true true true true true true true true true true true true true true true true true true true true true true true true true true true true true true true true true true true true true true true true true true true true true true true true true true true true true true true true true true true true true true true true true true true true true true true true true true true true true true true true true true (bvult _substvar_3552_ ?v_331) (bvule _substvar_3552_ ?v_331) true true true true true true (bvule (_ bv139327808 32) ?v_332) (bvule (_ bv139327920 32) ?v_332) (bvule (_ bv139327836 32) ?v_333) (bvule (_ bv139327948 32) ?v_333) true true true true true true true true true true true true true true true true true true true true true true true true true true true true true true true true true true true true true true true true true true true true true true true true true true true true true true true true true true true true true true true true true true true true true true true true true true true true (bvule ?v_205 _substvar_3552_) (bvule ?v_205 _substvar_3625_) (bvult ?v_205 _substvar_3625_) (bvule _substvar_3552_ ?v_205) (bvult ?v_205 (_ bv573440 32)) (not (= ?v_205 (_ bv4294967295 32))) true (bvule (_ bv65536 32) ?v_205) true (bvule ?v_205 _substvar_3533_) (bvult (_ bv0 32) _substvar_3581_) (bvule _substvar_3581_ (_ bv65536 32)) true true true true true true true true true true true true true true true true true true true true true true true true true true true true true true true true true true true true true true true true true true true true true true true true (bvule ?v_357 (_ bv65536 32)) (bvult ?v_357 (_ bv65536 32)) true true true true true true true true true true true true true true true true true true true true true true true true true true true true true true true true true true true true true true true true true true true true true true true true true true true true true true true true true true true true true true true true true true true true true true true true true true true true true true true true true true true true true true true true true true true true true true true true true true true true true true true true true true true true true true true true true true true true true true true true true true true true true true true true true true true true true true true true true true true true true true true true true true true true true true true true true true true true true true true true true true true true true true true true true true true true true true true)))))
(check-sat)
(exit)
